(set-logic ALL)
(set-option :produce-models true)
(declare-sort BoundSet 0)
(declare-sort UnboundSet 0)
(set-option :finite-model-find true)
(declare-fun AveragesMileage (BoundSet BoundSet) Bool)
(declare-fun IsSuperior (BoundSet) Bool)
(assert (not (=> (exists ((b BoundSet)) (exists ((a BoundSet)) (AveragesMileage a b))) (exists ((a BoundSet)) (IsSuperior a)))))
(check-sat)
(get-model)